[[62, 63, 72, 81, 80, 71, 70, 69, 78, 79, 88, 87, 89, 90, 99, 98, 97, 96, 95, 86, 94, 93, 92, 91, 82, 83, 73, 84, 74], [75, 76, 85, 77, 68, 67, 66, 59, 58, 57, 65, 56, 64, 55, 46, 47, 49, 50, 40, 48, 39, 38, 37, 29, 28, 31, 30, 19, 20, 21, 22, 13, 12, 11, 10, 2, 3, 4], [14, 5, 6, 7, 8, 9, 17, 18, 16, 15, 23, 24, 25, 26, 27, 35, 36, 34, 33, 32, 41, 42, 43, 44, 45, 54, 53, 52, 51, 60, 61]]